16
0 1 49
0 2 11
0 3 43
0 4 91
0 5 66
0 6 45
0 7 52
0 8 7
0 9 51
0 10 30
0 11 22
0 12 35
0 13 50
0 14 99
0 15 51
1 0 3
1 2 65
1 3 66
1 4 21
1 5 91
1 6 25
1 7 77
1 8 21
1 9 46
1 10 93
1 11 87
1 12 19
1 13 58
1 14 66
1 15 46
2 0 93
2 1 51
2 3 50
2 4 58
2 5 4
2 6 58
2 7 64
2 8 59
2 9 19
2 10 23
2 11 77
2 12 96
2 13 75
2 14 11
2 15 8
3 0 21
3 1 90
3 2 66
3 4 94
3 5 34
3 6 92
3 7 93
3 8 95
3 9 27
3 10 10
3 11 98
3 12 82
3 13 46
3 14 60
3 15 86
4 0 5
4 1 99
4 2 95
4 3 32
4 5 11
4 6 85
4 7 47
4 8 16
4 9 70
4 10 5
4 11 13
4 12 62
4 13 97
4 14 88
4 15 46
5 0 66
5 1 25
5 2 61
5 3 64
5 4 29
5 6 12
5 7 86
5 8 71
5 9 3
5 10 63
5 11 34
5 12 92
5 13 72
5 14 10
5 15 82
6 0 94
6 1 58
6 2 51
6 3 18
6 4 41
6 5 74
6 7 8
6 8 37
6 9 11
6 10 27
6 11 66
6 12 9
6 13 41
6 14 89
6 15 95
7 0 24
7 1 49
7 2 34
7 3 80
7 4 59
7 5 42
7 6 58
7 8 85
7 9 91
7 10 25
7 11 94
7 12 76
7 13 21
7 14 74
7 15 18
8 0 3
8 1 90
8 2 16
8 3 66
8 4 3
8 5 84
8 6 53
8 7 83
8 9 3
8 10 6
8 11 89
8 12 79
8 13 73
8 14 91
8 15 16
9 0 39
9 1 41
9 2 71
9 3 58
9 4 66
9 5 91
9 6 45
9 7 4
9 8 97
9 10 68
9 11 66
9 12 76
9 13 65
9 14 20
9 15 8
10 0 77
10 1 54
10 2 70
10 3 11
10 4 77
10 5 24
10 6 90
10 7 79
10 8 66
10 9 36
10 11 40
10 12 33
10 13 41
10 14 79
10 15 42
11 0 67
11 1 58
11 2 19
11 3 87
11 4 43
11 5 6
11 6 40
11 7 4
11 8 49
11 9 34
11 10 57
11 12 98
11 13 74
11 14 13
11 15 34
12 0 16
12 1 10
12 2 26
12 3 77
12 4 12
12 5 30
12 6 91
12 7 68
12 8 81
12 9 80
12 10 21
12 11 78
12 13 48
12 14 5
12 15 80
13 0 58
13 1 60
13 2 54
13 3 3
13 4 7
13 5 74
13 6 99
13 7 85
13 8 51
13 9 3
13 10 96
13 11 32
13 12 21
13 14 96
13 15 24
14 0 79
14 1 40
14 2 18
14 3 40
14 4 57
14 5 50
14 6 6
14 7 82
14 8 31
14 9 57
14 10 73
14 11 62
14 12 68
14 13 34
14 15 43
15 0 53
15 1 81
15 2 64
15 3 49
15 4 61
15 5 88
15 6 54
15 7 22
15 8 50
15 9 49
15 10 20
15 11 5
15 12 12
15 13 3
15 14 46
